proyfinal/src/viki/013/experimentInOfficeAgust.take6.output/150405a2-9c6d-41ae-80b6-016f7137310b.als.out
Reading from standard input... Use '--help' for help.
============================[ Problem Statistics ]=============================
|                                                                             |
|  Number of variables:         87638                                         |
|  Number of clauses:          161767                                         |
|  Parse time:                   0.03 s                                       |
|                                                                             |
============================[ Search Statistics ]==============================
| Conflicts |          ORIGINAL         |          LEARNT          | Progress |
|           |    Vars  Clauses Literals |    Limit  Clauses Lit/Cl |          |
===============================================================================
|       100 |   63186   108107   270152 |    39639      100     13 | 27.901 % |
|       250 |   52998    78778   198146 |    43603      243     38 | 39.526 % |
|       475 |   52998    78778   198146 |    47963      468     54 | 39.526 % |
|       812 |   52927    78540   197534 |    52759      803     58 | 39.607 % |
|      1318 |   52927    78540   197534 |    58035     1309     56 | 39.607 % |
|      2077 |   52890    78456   197341 |    63839     2066     54 | 39.649 % |
|      3216 |   52890    78376   197150 |    70223     3201     66 | 39.649 % |
|      4924 |   52754    77885   195949 |    77245     4902     62 | 39.805 % |
|      7486 |   52676    77639   195376 |    84970     7450     59 | 39.894 % |
|     11330 |   52676    77583   195246 |    93467    11294     61 | 39.894 % |
|     17096 |   52216    77066   194038 |   102813    16978     62 | 40.419 % |
===============================================================================
restarts              : 66
conflicts             : 19643          (7240 /sec)
decisions             : 61628          (0.00 % random) (22713 /sec)
propagations          : 30315326       (11172870 /sec)
conflict literals     : 1170841        (45.31 % deleted)
Memory used           : 28.32 MB
CPU time              : 2.7133 s

INDETERMINATE
